\ Model test_TE
\ LP format - for model browsing. Use MPS format to capture full model detail.
Maximize
  bf[0] + bf[1] + bf[2] + bf[3] + bf[4] + bf[5] + bf[6] + bf[7] + bf[8]
   + bf[9] + bf[10] + bf[11] + bf[12] + bf[13] + bf[14] + bf[15] + bf[16]
   + bf[17] + bf[18] + bf[19] + bf[20] + bf[21] + bf[22] + bf[23] + bf[24]
   + bf[25] + bf[26] + bf[27] + bf[28] + bf[29] + bf[30] + bf[31] + bf[32]
   + bf[33] + bf[34] + bf[35] + bf[36] + bf[37] + bf[38] + bf[39] + bf[40]
   + bf[41] + bf[42] + bf[43] + bf[44] + bf[45] + bf[46] + bf[47] + bf[48]
   + bf[49] + bf[50] + bf[51] + bf[52] + bf[53] + bf[54] + bf[55] + bf[56]
   + bf[57] + bf[58] + bf[59] + bf[60] + bf[61] + bf[62] + bf[63] + bf[64]
   + bf[65] + bf[66] + bf[67] + bf[68] + bf[69] + bf[70] + bf[71] + bf[72]
   + bf[73] + bf[74] + bf[75] + bf[76] + bf[77] + bf[78] + bf[79] + bf[80]
   + bf[81] + bf[82] + bf[83] + bf[84] + bf[85] + bf[86] + bf[87] + bf[88]
   + bf[89] + bf[90] + bf[91] + bf[92] + bf[93] + bf[94] + bf[95] + bf[96]
   + bf[97] + bf[98] + bf[99] + bf[100] + bf[101] + bf[102] + bf[103]
   + bf[104] + bf[105] + bf[106] + bf[107] + bf[108] + bf[109] + bf[110]
   + bf[111] + bf[112] + bf[113] + bf[114] + bf[115] + bf[116] + bf[117]
   + bf[118] + bf[119] + bf[120] + bf[121] + bf[122] + bf[123] + bf[124]
   + bf[125] + bf[126] + bf[127] + bf[128] + bf[129] + bf[130] + bf[131]
Subject To
 c1: Aft[0] + Aft[4] + Aft[5] + Aft[7] + Aft[9] + Aft[13] + Aft[17]
   + Aft[29] + Aft[69] + Aft[77] + Aft[103] + Aft[136] + Aft[137]
   + Aft[169] + Aft[203] + Aft[236] + Aft[302] + Aft[335] <= 5000
 c1: Aft[1] + Aft[2] + Aft[3] + Aft[6] + Aft[8] + Aft[10] + Aft[11]
   + Aft[12] + Aft[14] + Aft[15] + Aft[16] + Aft[18] + Aft[19] + Aft[20]
   + Aft[21] + Aft[22] + Aft[23] + Aft[24] + Aft[25] + Aft[26] + Aft[27]
   + Aft[28] + Aft[30] + Aft[31] + Aft[32] + Aft[36] + Aft[40] + Aft[43]
   + Aft[44] + Aft[46] + Aft[50] + Aft[62] + Aft[140] <= 5000
 c1: Aft[33] + Aft[36] + Aft[40] + Aft[43] + Aft[44] + Aft[46] + Aft[50]
   + Aft[62] + Aft[67] + Aft[68] + Aft[100] + Aft[132] + Aft[140]
   + Aft[166] + Aft[200] + Aft[233] + Aft[299] + Aft[332] <= 5000
 c1: Aft[4] + Aft[5] + Aft[7] + Aft[9] + Aft[13] + Aft[17] + Aft[29]
   + Aft[34] + Aft[35] + Aft[37] + Aft[38] + Aft[39] + Aft[41] + Aft[42]
   + Aft[45] + Aft[47] + Aft[48] + Aft[49] + Aft[51] + Aft[52] + Aft[53]
   + Aft[54] + Aft[55] + Aft[56] + Aft[57] + Aft[58] + Aft[59] + Aft[60]
   + Aft[61] + Aft[63] + Aft[64] + Aft[65] + Aft[77] <= 5000
 c1: Aft[34] + Aft[35] + Aft[66] + Aft[69] + Aft[77] + Aft[99] + Aft[101]
   + Aft[103] + Aft[133] + Aft[134] + Aft[136] + Aft[137] + Aft[165]
   + Aft[167] + Aft[169] + Aft[198] + Aft[199] + Aft[203] + Aft[231]
   + Aft[232] + Aft[236] + Aft[264] + Aft[265] + Aft[266] + Aft[297]
   + Aft[298] + Aft[302] + Aft[330] + Aft[331] + Aft[335] + Aft[363]
   + Aft[364] + Aft[365] <= 5000
 c1: Aft[1] + Aft[6] + Aft[10] + Aft[14] + Aft[15] + Aft[18] + Aft[20]
   + Aft[21] + Aft[22] + Aft[24] + Aft[26] + Aft[27] + Aft[30] + Aft[31]
   + Aft[40] + Aft[41] + Aft[44] + Aft[50] + Aft[62] + Aft[67] + Aft[70]
   + Aft[72] + Aft[75] + Aft[79] + Aft[80] + Aft[81] + Aft[83] + Aft[84]
   + Aft[87] + Aft[88] + Aft[90] + Aft[92] + Aft[93] + Aft[95] + Aft[96]
   + Aft[97] + Aft[142] + Aft[170] + Aft[174] + Aft[178] + Aft[182]
   <= 5000
 c1: Aft[2] + Aft[8] + Aft[11] + Aft[12] + Aft[16] + Aft[19] + Aft[23]
   + Aft[25] + Aft[28] + Aft[32] + Aft[43] + Aft[46] + Aft[68] + Aft[71]
   + Aft[73] + Aft[74] + Aft[76] + Aft[78] + Aft[82] + Aft[85] + Aft[86]
   + Aft[89] + Aft[91] + Aft[94] + Aft[98] + Aft[104] + Aft[109] + Aft[111]
   + Aft[116] <= 5000
 c1: Aft[5] + Aft[34] + Aft[37] + Aft[99] + Aft[103] + Aft[104] + Aft[105]
   + Aft[109] + Aft[111] + Aft[116] + Aft[133] + Aft[136] + Aft[138]
   + Aft[167] + Aft[172] + Aft[173] + Aft[198] + Aft[204] + Aft[206]
   + Aft[231] + Aft[237] + Aft[239] + Aft[264] + Aft[266] + Aft[270]
   + Aft[272] + Aft[297] + Aft[303] + Aft[305] + Aft[330] + Aft[336]
   + Aft[338] + Aft[363] + Aft[365] + Aft[369] + Aft[371] <= 5000
 c1: Aft[1] + Aft[10] + Aft[44] + Aft[67] + Aft[70] + Aft[75] + Aft[100]
   + Aft[101] + Aft[102] + Aft[106] + Aft[108] + Aft[112] + Aft[170]
   + Aft[178] + Aft[179] + Aft[200] + Aft[201] + Aft[210] + Aft[212]
   + Aft[233] + Aft[234] + Aft[243] + Aft[245] + Aft[267] + Aft[269]
   + Aft[276] + Aft[278] + Aft[299] + Aft[300] + Aft[309] + Aft[311]
   + Aft[332] + Aft[333] + Aft[342] + Aft[344] + Aft[366] + Aft[368]
   + Aft[375] + Aft[377] <= 5000
 c1: Aft[14] + Aft[15] + Aft[17] + Aft[20] + Aft[21] + Aft[26] + Aft[27]
   + Aft[29] + Aft[30] + Aft[47] + Aft[48] + Aft[50] + Aft[53] + Aft[54]
   + Aft[59] + Aft[60] + Aft[62] + Aft[63] + Aft[79] + Aft[81] + Aft[87]
   + Aft[92] + Aft[93] + Aft[96] + Aft[107] + Aft[110] + Aft[113]
   + Aft[114] + Aft[118] + Aft[119] + Aft[120] + Aft[122] + Aft[124]
   + Aft[125] + Aft[126] + Aft[129] + Aft[131] + Aft[145] + Aft[147]
   + Aft[153] + Aft[158] + Aft[159] + Aft[162] + Aft[182] + Aft[248]
   + Aft[251] + Aft[260] + Aft[317] + Aft[350] <= 5000
 c1: Aft[18] + Aft[22] + Aft[24] + Aft[31] + Aft[51] + Aft[55] + Aft[57]
   + Aft[64] + Aft[80] + Aft[83] + Aft[84] + Aft[88] + Aft[90] + Aft[95]
   + Aft[97] + Aft[115] + Aft[117] + Aft[121] + Aft[123] + Aft[127]
   + Aft[128] + Aft[130] + Aft[146] + Aft[149] + Aft[150] + Aft[154]
   + Aft[156] + Aft[161] + Aft[163] + Aft[185] + Aft[215] + Aft[218]
   + Aft[224] + Aft[320] + Aft[353] <= 5000
 c1: Aft[1] + Aft[2] + Aft[67] + Aft[68] + Aft[70] + Aft[71] + Aft[100]
   + Aft[102] + Aft[104] + Aft[132] + Aft[135] + Aft[140] + Aft[166]
   + Aft[168] + Aft[170] + Aft[200] + Aft[201] + Aft[202] + Aft[233]
   + Aft[234] + Aft[235] + Aft[267] + Aft[268] + Aft[269] + Aft[299]
   + Aft[300] + Aft[301] + Aft[332] + Aft[333] + Aft[334] + Aft[366]
   + Aft[367] + Aft[368] <= 5000
 c1: Aft[5] + Aft[7] + Aft[8] + Aft[17] + Aft[29] + Aft[34] + Aft[37]
   + Aft[39] + Aft[47] + Aft[48] + Aft[51] + Aft[53] + Aft[54] + Aft[55]
   + Aft[57] + Aft[59] + Aft[60] + Aft[63] + Aft[64] + Aft[73] + Aft[133]
   + Aft[136] + Aft[138] + Aft[141] + Aft[145] + Aft[146] + Aft[147]
   + Aft[149] + Aft[150] + Aft[153] + Aft[154] + Aft[156] + Aft[158]
   + Aft[159] + Aft[161] + Aft[162] + Aft[163] + Aft[167] + Aft[172]
   + Aft[175] + Aft[209] + Aft[242] <= 5000
 c1: Aft[4] + Aft[13] + Aft[35] + Aft[38] + Aft[41] + Aft[45] + Aft[49]
   + Aft[52] + Aft[56] + Aft[58] + Aft[61] + Aft[65] + Aft[101] + Aft[106]
   + Aft[112] + Aft[134] + Aft[137] + Aft[139] + Aft[142] + Aft[143]
   + Aft[144] + Aft[148] + Aft[151] + Aft[152] + Aft[155] + Aft[157]
   + Aft[160] + Aft[164] <= 5000
 c1: Aft[4] + Aft[35] + Aft[38] + Aft[41] + Aft[101] + Aft[106] + Aft[107]
   + Aft[134] + Aft[137] + Aft[139] + Aft[142] + Aft[165] + Aft[169]
   + Aft[170] + Aft[171] + Aft[174] + Aft[178] + Aft[182] + Aft[199]
   + Aft[203] + Aft[205] + Aft[232] + Aft[236] + Aft[238] + Aft[265]
   + Aft[271] + Aft[298] + Aft[302] + Aft[304] + Aft[331] + Aft[335]
   + Aft[337] + Aft[364] + Aft[370] <= 5000
 c1: Aft[2] + Aft[8] + Aft[11] + Aft[43] + Aft[68] + Aft[71] + Aft[73]
   + Aft[76] + Aft[104] + Aft[109] + Aft[110] + Aft[166] + Aft[167]
   + Aft[168] + Aft[172] + Aft[175] + Aft[177] + Aft[202] + Aft[209]
   + Aft[211] + Aft[235] + Aft[242] + Aft[244] + Aft[268] + Aft[277]
   + Aft[301] + Aft[310] + Aft[334] + Aft[343] + Aft[367] + Aft[376]
   <= 5000
 c1: Aft[16] + Aft[23] + Aft[28] + Aft[32] + Aft[49] + Aft[56] + Aft[61]
   + Aft[65] + Aft[74] + Aft[82] + Aft[86] + Aft[89] + Aft[94] + Aft[98]
   + Aft[116] + Aft[143] + Aft[148] + Aft[152] + Aft[155] + Aft[160]
   + Aft[164] + Aft[173] + Aft[176] + Aft[179] + Aft[180] + Aft[184]
   + Aft[185] + Aft[186] + Aft[188] + Aft[190] + Aft[191] + Aft[192]
   + Aft[195] + Aft[197] + Aft[250] <= 5000
 c1: Aft[19] + Aft[25] + Aft[52] + Aft[58] + Aft[85] + Aft[91] + Aft[119]
   + Aft[151] + Aft[157] + Aft[181] + Aft[183] + Aft[187] + Aft[189]
   + Aft[193] + Aft[194] + Aft[196] + Aft[217] <= 5000
 c1: Aft[74] + Aft[143] + Aft[173] + Aft[176] + Aft[179] + Aft[185]
   + Aft[198] + Aft[200] + Aft[201] + Aft[204] + Aft[207] + Aft[210]
   + Aft[215] + Aft[218] + Aft[224] + Aft[239] + Aft[241] + Aft[245]
   + Aft[266] + Aft[269] + Aft[272] + Aft[274] + Aft[275] + Aft[278]
   + Aft[305] + Aft[307] + Aft[308] + Aft[311] + Aft[320] + Aft[330]
   + Aft[332] + Aft[333] + Aft[336] + Aft[339] + Aft[342] + Aft[353]
   + Aft[365] + Aft[368] + Aft[371] + Aft[373] + Aft[374] + Aft[377]
   <= 5000
 c1: Aft[14] + Aft[47] + Aft[79] + Aft[107] + Aft[110] + Aft[113]
   + Aft[119] + Aft[145] + Aft[199] + Aft[202] + Aft[203] + Aft[205]
   + Aft[209] + Aft[211] + Aft[213] + Aft[217] + Aft[247] + Aft[248]
   + Aft[280] + Aft[281] + Aft[313] + Aft[314] + Aft[331] + Aft[334]
   + Aft[335] + Aft[337] + Aft[343] + Aft[345] + Aft[379] + Aft[380]
   <= 5000
 c1: Aft[20] + Aft[26] + Aft[53] + Aft[59] + Aft[86] + Aft[92] + Aft[118]
   + Aft[125] + Aft[131] + Aft[152] + Aft[158] + Aft[184] + Aft[191]
   + Aft[197] + Aft[206] + Aft[208] + Aft[212] + Aft[214] + Aft[216]
   + Aft[220] + Aft[222] + Aft[226] + Aft[227] + Aft[230] + Aft[286]
   + Aft[319] + Aft[338] + Aft[340] + Aft[344] + Aft[346] + Aft[351]
   + Aft[385] <= 5000
 c1: Aft[21] + Aft[23] + Aft[27] + Aft[28] + Aft[29] + Aft[30] + Aft[32]
   + Aft[54] + Aft[56] + Aft[60] + Aft[61] + Aft[62] + Aft[63] + Aft[65]
   + Aft[87] + Aft[89] + Aft[93] + Aft[94] + Aft[96] + Aft[98] + Aft[120]
   + Aft[122] + Aft[124] + Aft[126] + Aft[127] + Aft[129] + Aft[153]
   + Aft[155] + Aft[159] + Aft[160] + Aft[162] + Aft[164] + Aft[186]
   + Aft[188] + Aft[190] + Aft[192] + Aft[193] + Aft[195] + Aft[219]
   + Aft[221] + Aft[223] + Aft[225] + Aft[228] + Aft[229] + Aft[253]
   + Aft[256] + Aft[257] + Aft[258] + Aft[260] + Aft[263] <= 5000
 c1: Aft[206] + Aft[208] + Aft[212] + Aft[231] + Aft[233] + Aft[234]
   + Aft[237] + Aft[240] + Aft[243] + Aft[248] + Aft[251] + Aft[260]
   + Aft[264] + Aft[267] + Aft[270] + Aft[273] + Aft[276] + Aft[297]
   + Aft[299] + Aft[300] + Aft[303] + Aft[306] + Aft[309] + Aft[317]
   + Aft[338] + Aft[340] + Aft[341] + Aft[344] + Aft[350] + Aft[363]
   + Aft[366] + Aft[369] + Aft[372] + Aft[375] <= 5000
 c1: Aft[80] + Aft[146] + Aft[214] + Aft[215] + Aft[232] + Aft[235]
   + Aft[236] + Aft[238] + Aft[242] + Aft[244] + Aft[246] + Aft[250]
   + Aft[265] + Aft[268] + Aft[271] + Aft[277] + Aft[279] + Aft[298]
   + Aft[301] + Aft[302] + Aft[304] + Aft[310] + Aft[312] + Aft[346]
   + Aft[347] + Aft[364] + Aft[367] + Aft[370] + Aft[376] + Aft[378]
   <= 5000
 c1: Aft[83] + Aft[115] + Aft[127] + Aft[149] + Aft[181] + Aft[193]
   + Aft[239] + Aft[241] + Aft[245] + Aft[247] + Aft[249] + Aft[253]
   + Aft[256] + Aft[257] + Aft[258] + Aft[263] + Aft[284] + Aft[305]
   + Aft[307] + Aft[311] + Aft[313] + Aft[315] + Aft[349] + Aft[383]
   <= 5000
 c1: Aft[22] + Aft[24] + Aft[25] + Aft[26] + Aft[31] + Aft[55] + Aft[57]
   + Aft[58] + Aft[59] + Aft[64] + Aft[88] + Aft[90] + Aft[91] + Aft[92]
   + Aft[95] + Aft[97] + Aft[121] + Aft[123] + Aft[125] + Aft[128]
   + Aft[130] + Aft[131] + Aft[154] + Aft[156] + Aft[157] + Aft[158]
   + Aft[161] + Aft[163] + Aft[187] + Aft[189] + Aft[191] + Aft[194]
   + Aft[196] + Aft[197] + Aft[220] + Aft[222] + Aft[224] + Aft[226]
   + Aft[227] + Aft[230] + Aft[252] + Aft[254] + Aft[255] + Aft[259]
   + Aft[261] + Aft[262] <= 5000
 c1: Aft[257] + Aft[264] + Aft[265] + Aft[267] + Aft[268] + Aft[270]
   + Aft[271] + Aft[273] + Aft[275] + Aft[276] + Aft[277] + Aft[279]
   + Aft[281] + Aft[283] + Aft[284] + Aft[285] + Aft[288] + Aft[292]
   + Aft[293] + Aft[294] + Aft[358] + Aft[362] + Aft[392] <= 5000
 c1: Aft[227] + Aft[266] + Aft[269] + Aft[272] + Aft[274] + Aft[278]
   + Aft[280] + Aft[282] + Aft[286] + Aft[287] + Aft[289] + Aft[290]
   + Aft[291] + Aft[295] + Aft[296] + Aft[325] + Aft[329] + Aft[395]
   <= 5000
 c1: Aft[264] + Aft[265] + Aft[267] + Aft[268] + Aft[270] + Aft[271]
   + Aft[273] + Aft[276] + Aft[277] + Aft[279] + Aft[284] + Aft[285]
   + Aft[287] + Aft[297] + Aft[298] + Aft[299] + Aft[300] + Aft[301]
   + Aft[302] + Aft[303] + Aft[304] + Aft[305] + Aft[306] + Aft[307]
   + Aft[309] + Aft[310] + Aft[311] + Aft[312] + Aft[313] + Aft[315]
   + Aft[317] + Aft[318] + Aft[341] + Aft[347] + Aft[349] + Aft[350]
   + Aft[352] + Aft[363] + Aft[364] + Aft[366] + Aft[367] + Aft[369]
   + Aft[370] + Aft[372] + Aft[375] + Aft[376] + Aft[378] + Aft[383]
   + Aft[384] + Aft[386] <= 5000
 c1: Aft[22] + Aft[55] + Aft[88] + Aft[121] + Aft[122] + Aft[154]
   + Aft[187] + Aft[188] + Aft[220] + Aft[221] + Aft[227] + Aft[252]
   + Aft[321] + Aft[325] + Aft[329] + Aft[355] + Aft[356] + Aft[387]
   + Aft[395] <= 5000
 c1: Aft[95] + Aft[128] + Aft[161] + Aft[194] + Aft[226] + Aft[254]
   + Aft[259] + Aft[262] + Aft[275] + Aft[281] + Aft[283] + Aft[292]
   + Aft[308] + Aft[314] + Aft[316] + Aft[319] + Aft[320] + Aft[322]
   + Aft[324] + Aft[328] + Aft[374] + Aft[380] + Aft[382] + Aft[389]
   + Aft[394] <= 5000
 c1: Aft[31] + Aft[64] + Aft[97] + Aft[130] + Aft[131] + Aft[163]
   + Aft[196] + Aft[197] + Aft[229] + Aft[230] + Aft[261] + Aft[293]
   + Aft[294] + Aft[296] + Aft[323] + Aft[326] + Aft[327] + Aft[361]
   + Aft[362] <= 5000
 c1: Aft[266] + Aft[269] + Aft[272] + Aft[274] + Aft[275] + Aft[278]
   + Aft[280] + Aft[281] + Aft[282] + Aft[283] + Aft[286] + Aft[308]
   + Aft[314] + Aft[316] + Aft[319] + Aft[320] + Aft[330] + Aft[331]
   + Aft[332] + Aft[333] + Aft[334] + Aft[335] + Aft[336] + Aft[337]
   + Aft[338] + Aft[339] + Aft[340] + Aft[342] + Aft[343] + Aft[344]
   + Aft[345] + Aft[346] + Aft[348] + Aft[351] + Aft[353] + Aft[365]
   + Aft[368] + Aft[371] + Aft[373] + Aft[374] + Aft[377] + Aft[379]
   + Aft[380] + Aft[381] + Aft[382] + Aft[385] <= 5000
 c1: Aft[21] + Aft[23] + Aft[54] + Aft[56] + Aft[87] + Aft[89] + Aft[120]
   + Aft[153] + Aft[155] + Aft[186] + Aft[219] + Aft[253] + Aft[254]
   + Aft[257] + Aft[322] + Aft[323] + Aft[354] + Aft[358] + Aft[362]
   + Aft[388] + Aft[389] + Aft[392] <= 5000
 c1: Aft[122] + Aft[124] + Aft[188] + Aft[190] + Aft[221] + Aft[223]
   + Aft[229] + Aft[256] + Aft[287] + Aft[289] + Aft[296] + Aft[341]
   + Aft[347] + Aft[349] + Aft[350] + Aft[352] + Aft[355] + Aft[357]
   + Aft[361] + Aft[386] + Aft[391] <= 5000
 c1: Aft[30] + Aft[32] + Aft[63] + Aft[65] + Aft[96] + Aft[98] + Aft[129]
   + Aft[162] + Aft[164] + Aft[195] + Aft[228] + Aft[262] + Aft[263]
   + Aft[290] + Aft[295] + Aft[328] + Aft[329] + Aft[356] + Aft[359]
   + Aft[360] <= 5000
 c1: Aft[290] + Aft[356] + Aft[359] + Aft[363] + Aft[364] + Aft[366]
   + Aft[367] + Aft[369] + Aft[370] + Aft[372] + Aft[374] + Aft[375]
   + Aft[376] + Aft[378] + Aft[380] + Aft[382] + Aft[383] + Aft[384]
   + Aft[387] + Aft[389] + Aft[390] + Aft[394] + Aft[395] <= 5000
 c1: Aft[293] + Aft[323] + Aft[326] + Aft[365] + Aft[368] + Aft[371]
   + Aft[373] + Aft[377] + Aft[379] + Aft[381] + Aft[385] + Aft[386]
   + Aft[388] + Aft[391] + Aft[392] + Aft[393] <= 5000
 c2: - bf[0] + Aft[0] + Aft[1] + Aft[2] >= 0
 c2: - bf[1] + Aft[3] + Aft[4] + Aft[5] >= 0
 c2: - bf[2] + Aft[6] + Aft[7] + Aft[8] >= 0
 c2: - bf[3] + Aft[9] + Aft[10] + Aft[11] >= 0
 c2: - bf[4] + Aft[12] + Aft[13] + Aft[14] >= 0
 c2: - bf[5] + Aft[15] + Aft[16] + Aft[17] >= 0
 c2: - bf[6] + Aft[18] + Aft[19] + Aft[20] >= 0
 c2: - bf[7] + Aft[21] + Aft[22] + Aft[23] >= 0
 c2: - bf[8] + Aft[24] + Aft[25] + Aft[26] >= 0
 c2: - bf[9] + Aft[27] + Aft[28] + Aft[29] >= 0
 c2: - bf[10] + Aft[30] + Aft[31] + Aft[32] >= 0
 c2: - bf[11] + Aft[33] + Aft[34] + Aft[35] >= 0
 c2: - bf[12] + Aft[36] + Aft[37] + Aft[38] >= 0
 c2: - bf[13] + Aft[39] + Aft[40] + Aft[41] >= 0
 c2: - bf[14] + Aft[42] + Aft[43] + Aft[44] >= 0
 c2: - bf[15] + Aft[45] + Aft[46] + Aft[47] >= 0
 c2: - bf[16] + Aft[48] + Aft[49] + Aft[50] >= 0
 c2: - bf[17] + Aft[51] + Aft[52] + Aft[53] >= 0
 c2: - bf[18] + Aft[54] + Aft[55] + Aft[56] >= 0
 c2: - bf[19] + Aft[57] + Aft[58] + Aft[59] >= 0
 c2: - bf[20] + Aft[60] + Aft[61] + Aft[62] >= 0
 c2: - bf[21] + Aft[63] + Aft[64] + Aft[65] >= 0
 c2: - bf[22] + Aft[66] + Aft[67] + Aft[68] >= 0
 c2: - bf[23] + Aft[69] + Aft[70] + Aft[71] >= 0
 c2: - bf[24] + Aft[72] + Aft[73] + Aft[74] >= 0
 c2: - bf[25] + Aft[75] + Aft[76] + Aft[77] >= 0
 c2: - bf[26] + Aft[78] + Aft[79] + Aft[80] >= 0
 c2: - bf[27] + Aft[81] + Aft[82] + Aft[83] >= 0
 c2: - bf[28] + Aft[84] + Aft[85] + Aft[86] >= 0
 c2: - bf[29] + Aft[87] + Aft[88] + Aft[89] >= 0
 c2: - bf[30] + Aft[90] + Aft[91] + Aft[92] >= 0
 c2: - bf[31] + Aft[93] + Aft[94] + Aft[95] >= 0
 c2: - bf[32] + Aft[96] + Aft[97] + Aft[98] >= 0
 c2: - bf[33] + Aft[99] + Aft[100] + Aft[101] >= 0
 c2: - bf[34] + Aft[102] + Aft[103] + Aft[104] >= 0
 c2: - bf[35] + Aft[105] + Aft[106] + Aft[107] >= 0
 c2: - bf[36] + Aft[108] + Aft[109] + Aft[110] >= 0
 c2: - bf[37] + Aft[111] + Aft[112] + Aft[113] >= 0
 c2: - bf[38] + Aft[114] + Aft[115] + Aft[116] >= 0
 c2: - bf[39] + Aft[117] + Aft[118] + Aft[119] >= 0
 c2: - bf[40] + Aft[120] + Aft[121] + Aft[122] >= 0
 c2: - bf[41] + Aft[123] + Aft[124] + Aft[125] >= 0
 c2: - bf[42] + Aft[126] + Aft[127] + Aft[128] >= 0
 c2: - bf[43] + Aft[129] + Aft[130] + Aft[131] >= 0
 c2: - bf[44] + Aft[132] + Aft[133] + Aft[134] >= 0
 c2: - bf[45] + Aft[135] + Aft[136] + Aft[137] >= 0
 c2: - bf[46] + Aft[138] + Aft[139] + Aft[140] >= 0
 c2: - bf[47] + Aft[141] + Aft[142] + Aft[143] >= 0
 c2: - bf[48] + Aft[144] + Aft[145] + Aft[146] >= 0
 c2: - bf[49] + Aft[147] + Aft[148] + Aft[149] >= 0
 c2: - bf[50] + Aft[150] + Aft[151] + Aft[152] >= 0
 c2: - bf[51] + Aft[153] + Aft[154] + Aft[155] >= 0
 c2: - bf[52] + Aft[156] + Aft[157] + Aft[158] >= 0
 c2: - bf[53] + Aft[159] + Aft[160] + Aft[161] >= 0
 c2: - bf[54] + Aft[162] + Aft[163] + Aft[164] >= 0
 c2: - bf[55] + Aft[165] + Aft[166] + Aft[167] >= 0
 c2: - bf[56] + Aft[168] + Aft[169] + Aft[170] >= 0
 c2: - bf[57] + Aft[171] + Aft[172] + Aft[173] >= 0
 c2: - bf[58] + Aft[174] + Aft[175] + Aft[176] >= 0
 c2: - bf[59] + Aft[177] + Aft[178] + Aft[179] >= 0
 c2: - bf[60] + Aft[180] + Aft[181] + Aft[182] >= 0
 c2: - bf[61] + Aft[183] + Aft[184] + Aft[185] >= 0
 c2: - bf[62] + Aft[186] + Aft[187] + Aft[188] >= 0
 c2: - bf[63] + Aft[189] + Aft[190] + Aft[191] >= 0
 c2: - bf[64] + Aft[192] + Aft[193] + Aft[194] >= 0
 c2: - bf[65] + Aft[195] + Aft[196] + Aft[197] >= 0
 c2: - bf[66] + Aft[198] + Aft[199] + Aft[200] >= 0
 c2: - bf[67] + Aft[201] + Aft[202] + Aft[203] >= 0
 c2: - bf[68] + Aft[204] + Aft[205] + Aft[206] >= 0
 c2: - bf[69] + Aft[207] + Aft[208] + Aft[209] >= 0
 c2: - bf[70] + Aft[210] + Aft[211] + Aft[212] >= 0
 c2: - bf[71] + Aft[213] + Aft[214] + Aft[215] >= 0
 c2: - bf[72] + Aft[216] + Aft[217] + Aft[218] >= 0
 c2: - bf[73] + Aft[219] + Aft[220] + Aft[221] >= 0
 c2: - bf[74] + Aft[222] + Aft[223] + Aft[224] >= 0
 c2: - bf[75] + Aft[225] + Aft[226] + Aft[227] >= 0
 c2: - bf[76] + Aft[228] + Aft[229] + Aft[230] >= 0
 c2: - bf[77] + Aft[231] + Aft[232] + Aft[233] >= 0
 c2: - bf[78] + Aft[234] + Aft[235] + Aft[236] >= 0
 c2: - bf[79] + Aft[237] + Aft[238] + Aft[239] >= 0
 c2: - bf[80] + Aft[240] + Aft[241] + Aft[242] >= 0
 c2: - bf[81] + Aft[243] + Aft[244] + Aft[245] >= 0
 c2: - bf[82] + Aft[246] + Aft[247] + Aft[248] >= 0
 c2: - bf[83] + Aft[249] + Aft[250] + Aft[251] >= 0
 c2: - bf[84] + Aft[252] + Aft[253] + Aft[254] >= 0
 c2: - bf[85] + Aft[255] + Aft[256] + Aft[257] >= 0
 c2: - bf[86] + Aft[258] + Aft[259] + Aft[260] >= 0
 c2: - bf[87] + Aft[261] + Aft[262] + Aft[263] >= 0
 c2: - bf[88] + Aft[264] + Aft[265] + Aft[266] >= 0
 c2: - bf[89] + Aft[267] + Aft[268] + Aft[269] >= 0
 c2: - bf[90] + Aft[270] + Aft[271] + Aft[272] >= 0
 c2: - bf[91] + Aft[273] + Aft[274] + Aft[275] >= 0
 c2: - bf[92] + Aft[276] + Aft[277] + Aft[278] >= 0
 c2: - bf[93] + Aft[279] + Aft[280] + Aft[281] >= 0
 c2: - bf[94] + Aft[282] + Aft[283] + Aft[284] >= 0
 c2: - bf[95] + Aft[285] + Aft[286] + Aft[287] >= 0
 c2: - bf[96] + Aft[288] + Aft[289] + Aft[290] >= 0
 c2: - bf[97] + Aft[291] + Aft[292] + Aft[293] >= 0
 c2: - bf[98] + Aft[294] + Aft[295] + Aft[296] >= 0
 c2: - bf[99] + Aft[297] + Aft[298] + Aft[299] >= 0
 c2: - bf[100] + Aft[300] + Aft[301] + Aft[302] >= 0
 c2: - bf[101] + Aft[303] + Aft[304] + Aft[305] >= 0
 c2: - bf[102] + Aft[306] + Aft[307] + Aft[308] >= 0
 c2: - bf[103] + Aft[309] + Aft[310] + Aft[311] >= 0
 c2: - bf[104] + Aft[312] + Aft[313] + Aft[314] >= 0
 c2: - bf[105] + Aft[315] + Aft[316] + Aft[317] >= 0
 c2: - bf[106] + Aft[318] + Aft[319] + Aft[320] >= 0
 c2: - bf[107] + Aft[321] + Aft[322] + Aft[323] >= 0
 c2: - bf[108] + Aft[324] + Aft[325] + Aft[326] >= 0
 c2: - bf[109] + Aft[327] + Aft[328] + Aft[329] >= 0
 c2: - bf[110] + Aft[330] + Aft[331] + Aft[332] >= 0
 c2: - bf[111] + Aft[333] + Aft[334] + Aft[335] >= 0
 c2: - bf[112] + Aft[336] + Aft[337] + Aft[338] >= 0
 c2: - bf[113] + Aft[339] + Aft[340] + Aft[341] >= 0
 c2: - bf[114] + Aft[342] + Aft[343] + Aft[344] >= 0
 c2: - bf[115] + Aft[345] + Aft[346] + Aft[347] >= 0
 c2: - bf[116] + Aft[348] + Aft[349] + Aft[350] >= 0
 c2: - bf[117] + Aft[351] + Aft[352] + Aft[353] >= 0
 c2: - bf[118] + Aft[354] + Aft[355] + Aft[356] >= 0
 c2: - bf[119] + Aft[357] + Aft[358] + Aft[359] >= 0
 c2: - bf[120] + Aft[360] + Aft[361] + Aft[362] >= 0
 c2: - bf[121] + Aft[363] + Aft[364] + Aft[365] >= 0
 c2: - bf[122] + Aft[366] + Aft[367] + Aft[368] >= 0
 c2: - bf[123] + Aft[369] + Aft[370] + Aft[371] >= 0
 c2: - bf[124] + Aft[372] + Aft[373] + Aft[374] >= 0
 c2: - bf[125] + Aft[375] + Aft[376] + Aft[377] >= 0
 c2: - bf[126] + Aft[378] + Aft[379] + Aft[380] >= 0
 c2: - bf[127] + Aft[381] + Aft[382] + Aft[383] >= 0
 c2: - bf[128] + Aft[384] + Aft[385] + Aft[386] >= 0
 c2: - bf[129] + Aft[387] + Aft[388] + Aft[389] >= 0
 c2: - bf[130] + Aft[390] + Aft[391] + Aft[392] >= 0
 c2: - bf[131] + Aft[393] + Aft[394] + Aft[395] >= 0
 c3: bf[0] <= 9.466804472
 c4: bf[0] >= 0
 c3: bf[1] <= 52.353326212
 c4: bf[1] >= 0
 c3: bf[2] <= 12.755747757
 c4: bf[2] >= 0
 c3: bf[3] <= 6.417379799
 c4: bf[3] >= 0
 c3: bf[4] <= 27.734892783
 c4: bf[4] >= 0
 c3: bf[5] <= 18.106391234
 c4: bf[5] >= 0
 c3: bf[6] <= 38.742817362
 c4: bf[6] >= 0
 c3: bf[7] <= 4.149067603000001
 c4: bf[7] >= 0
 c3: bf[8] <= 14.539530409
 c4: bf[8] >= 0
 c3: bf[9] <= 53.50111661
 c4: bf[9] >= 0
 c3: bf[10] <= 146.395105622
 c4: bf[10] >= 0
 c3: bf[11] <= 5.746500456
 c4: bf[11] >= 0
 c3: bf[12] <= 14.529689052
 c4: bf[12] >= 0
 c3: bf[13] <= 3.802235372
 c4: bf[13] >= 0
 c3: bf[14] <= 2.054526997
 c4: bf[14] >= 0
 c3: bf[15] <= 8.267221364999999
 c4: bf[15] >= 0
 c3: bf[16] <= 5.397156053
 c4: bf[16] >= 0
 c3: bf[17] <= 11.548465319
 c4: bf[17] >= 0
 c3: bf[18] <= 1.236754748
 c4: bf[18] >= 0
 c3: bf[19] <= 4.333945596
 c4: bf[19] >= 0
 c3: bf[20] <= 15.947621566
 c4: bf[20] >= 0
 c3: bf[21] <= 43.637476963
 c4: bf[21] >= 0
 c3: bf[22] <= 0.962108663
 c4: bf[22] >= 0
 c3: bf[23] <= 0.439881936
 c4: bf[23] >= 0
 c3: bf[24] <= 0.683723823
 c4: bf[24] >= 0
 c3: bf[25] <= 0.320266488
 c4: bf[25] >= 0
 c3: bf[26] <= 1.486624483
 c4: bf[26] >= 0
 c3: bf[27] <= 0.970524917
 c4: bf[27] >= 0
 c3: bf[28] <= 2.076662826
 c4: bf[28] >= 0
 c3: bf[29] <= 0.222395144
 c4: bf[29] >= 0
 c3: bf[30] <= 0.779336774
 c4: bf[30] >= 0
 c3: bf[31] <= 2.86772588
 c4: bf[31] >= 0
 c3: bf[32] <= 7.846958338
 c4: bf[32] >= 0
 c3: bf[33] <= 11.618971663
 c4: bf[33] >= 0
 c3: bf[34] <= 5.705592223
 c4: bf[34] >= 0
 c3: bf[35] <= 33.889302937
 c4: bf[35] >= 0
 c3: bf[36] <= 4.461666802
 c4: bf[36] >= 0
 c3: bf[37] <= 17.95332315
 c4: bf[37] >= 0
 c3: bf[38] <= 13.520486713
 c4: bf[38] >= 0
 c3: bf[39] <= 28.930212574
 c4: bf[39] >= 0
 c3: bf[40] <= 3.098210608
 c4: bf[40] >= 0
 c3: bf[41] <= 10.857024194
 c4: bf[41] >= 0
 c3: bf[42] <= 39.95059683
 c4: bf[42] >= 0
 c3: bf[43] <= 109.316818286
 c4: bf[43] >= 0
 c3: bf[44] <= 261.468165541
 c4: bf[44] >= 0
 c3: bf[45] <= 137.902738735
 c4: bf[45] >= 0
 c3: bf[46] <= 710.056208235
 c4: bf[46] >= 0
 c3: bf[47] <= 199.570543942
 c4: bf[47] >= 0
 c3: bf[48] <= 433.92733568
 c4: bf[48] >= 0
 c3: bf[49] <= 283.28424301
 c4: bf[49] >= 0
 c3: bf[50] <= 606.15224461
 c4: bf[50] >= 0
 c3: bf[51] <= 64.91439734299999
 c4: bf[51] >= 0
 c3: bf[52] <= 227.478784273
 c4: bf[52] >= 0
 c3: bf[53] <= 837.05378521
 c4: bf[53] >= 0
 c3: bf[54] <= 2290.430276255
 c4: bf[54] >= 0
 c3: bf[55] <= 148.344126332
 c4: bf[55] >= 0
 c3: bf[56] <= 72.845611303
 c4: bf[56] >= 0
 c3: bf[57] <= 432.678483258
 c4: bf[57] >= 0
 c3: bf[58] <= 105.420953963
 c4: bf[58] >= 0
 c3: bf[59] <= 56.96391065
 c4: bf[59] >= 0
 c3: bf[60] <= 172.621540626
 c4: bf[60] >= 0
 c3: bf[61] <= 369.363764136
 c4: bf[61] >= 0
 c3: bf[62] <= 39.556112119
 c4: bf[62] >= 0
 c3: bf[63] <= 138.616033789
 c4: bf[63] >= 0
 c3: bf[64] <= 510.065482126
 c4: bf[64] >= 0
 c3: bf[65] <= 1395.692181049
 c4: bf[65] >= 0
 c3: bf[66] <= 37.740324653
 c4: bf[66] >= 0
 c3: bf[67] <= 18.532698855
 c4: bf[67] >= 0
 c3: bf[68] <= 110.078011395
 c4: bf[68] >= 0
 c3: bf[69] <= 30.938858579
 c4: bf[69] >= 0
 c3: bf[70] <= 14.49222517
 c4: bf[70] >= 0
 c3: bf[71] <= 67.27053104699999
 c4: bf[71] >= 0
 c3: bf[72] <= 100.9277516
 c4: bf[72] >= 0
 c3: bf[73] <= 11.608896645
 c4: bf[73] >= 0
 c3: bf[74] <= 37.876494622
 c4: bf[74] >= 0
 c3: bf[75] <= 149.69361616
 c4: bf[75] >= 0
 c3: bf[76] <= 409.606642574
 c4: bf[76] >= 0
 c3: bf[77] <= 6.643390125
 c4: bf[77] >= 0
 c3: bf[78] <= 3.262291718
 c4: bf[78] >= 0
 c3: bf[79] <= 19.37691794
 c4: bf[79] >= 0
 c3: bf[80] <= 5.44613512
 c4: bf[80] >= 0
 c3: bf[81] <= 2.551051335
 c4: bf[81] >= 0
 c3: bf[82] <= 11.841561665
 c4: bf[82] >= 0
 c3: bf[83] <= 8.303007384000001
 c4: bf[83] >= 0
 c3: bf[84] <= 2.043502011
 c4: bf[84] >= 0
 c3: bf[85] <= 7.161020854999999
 c4: bf[85] >= 0
 c3: bf[86] <= 24.533887539
 c4: bf[86] >= 0
 c3: bf[87] <= 72.102631581
 c4: bf[87] >= 0
 c3: bf[88] <= 16.583899807
 c4: bf[88] >= 0
 c3: bf[89] <= 8.143661290000001
 c4: bf[89] >= 0
 c3: bf[90] <= 48.370614951
 c4: bf[90] >= 0
 c3: bf[91] <= 13.595191232
 c4: bf[91] >= 0
 c3: bf[92] <= 6.368191382
 c4: bf[92] >= 0
 c3: bf[93] <= 29.560099366
 c4: bf[93] >= 0
 c3: bf[94] <= 22.261445826
 c4: bf[94] >= 0
 c3: bf[95] <= 47.63351894300001
 c4: bf[95] >= 0
 c3: bf[96] <= 20.62119913
 c4: bf[96] >= 0
 c3: bf[97] <= 75.87983574900001
 c4: bf[97] >= 0
 c3: bf[98] <= 207.629994902
 c4: bf[98] >= 0
 c3: bf[99] <= 19.377713367
 c4: bf[99] >= 0
 c3: bf[100] <= 9.515586568
 c4: bf[100] >= 0
 c3: bf[101] <= 56.519390663
 c4: bf[101] >= 0
 c3: bf[102] <= 15.885510763
 c4: bf[102] >= 0
 c3: bf[103] <= 7.441011384
 c4: bf[103] >= 0
 c3: bf[104] <= 34.539953767
 c4: bf[104] >= 0
 c3: bf[105] <= 24.218553203
 c4: bf[105] >= 0
 c3: bf[106] <= 55.658119471
 c4: bf[106] >= 0
 c3: bf[107] <= 6.875905659
 c4: bf[107] >= 0
 c3: bf[108] <= 82.55078549
 c4: bf[108] >= 0
 c3: bf[109] <= 242.608468122
 c4: bf[109] >= 0
 c3: bf[110] <= 56.279614522
 c4: bf[110] >= 0
 c3: bf[111] <= 27.636570623
 c4: bf[111] >= 0
 c3: bf[112] <= 164.151954324
 c4: bf[112] >= 0
 c3: bf[113] <= 46.13704441100001
 c4: bf[113] >= 0
 c3: bf[114] <= 21.611283253
 c4: bf[114] >= 0
 c3: bf[115] <= 100.316030422
 c4: bf[115] >= 0
 c3: bf[116] <= 75.547103178
 c4: bf[116] >= 0
 c3: bf[117] <= 150.506785695
 c4: bf[117] >= 0
 c3: bf[118] <= 19.970019819
 c4: bf[118] >= 0
 c3: bf[119] <= 65.156437463
 c4: bf[119] >= 0
 c3: bf[120] <= 704.6193122479999
 c4: bf[120] >= 0
 c3: bf[121] <= 53.571731414
 c4: bf[121] >= 0
 c3: bf[122] <= 26.306842205
 c4: bf[122] >= 0
 c3: bf[123] <= 156.253813796
 c4: bf[123] >= 0
 c3: bf[124] <= 43.917169163
 c4: bf[124] >= 0
 c3: bf[125] <= 20.571460408
 c4: bf[125] >= 0
 c3: bf[126] <= 95.489343412
 c4: bf[126] >= 0
 c3: bf[127] <= 71.912168462
 c4: bf[127] >= 0
 c3: bf[128] <= 153.87273879
 c4: bf[128] >= 0
 c3: bf[129] <= 19.009166057
 c4: bf[129] >= 0
 c3: bf[130] <= 66.61360440300001
 c4: bf[130] >= 0
 c3: bf[131] <= 245.118110201
 c4: bf[131] >= 0
 c5: Aft[0] >= 0
 c5: Aft[1] >= 0
 c5: Aft[2] >= 0
 c5: Aft[3] >= 0
 c5: Aft[4] >= 0
 c5: Aft[5] >= 0
 c5: Aft[6] >= 0
 c5: Aft[7] >= 0
 c5: Aft[8] >= 0
 c5: Aft[9] >= 0
 c5: Aft[10] >= 0
 c5: Aft[11] >= 0
 c5: Aft[12] >= 0
 c5: Aft[13] >= 0
 c5: Aft[14] >= 0
 c5: Aft[15] >= 0
 c5: Aft[16] >= 0
 c5: Aft[17] >= 0
 c5: Aft[18] >= 0
 c5: Aft[19] >= 0
 c5: Aft[20] >= 0
 c5: Aft[21] >= 0
 c5: Aft[22] >= 0
 c5: Aft[23] >= 0
 c5: Aft[24] >= 0
 c5: Aft[25] >= 0
 c5: Aft[26] >= 0
 c5: Aft[27] >= 0
 c5: Aft[28] >= 0
 c5: Aft[29] >= 0
 c5: Aft[30] >= 0
 c5: Aft[31] >= 0
 c5: Aft[32] >= 0
 c5: Aft[33] >= 0
 c5: Aft[34] >= 0
 c5: Aft[35] >= 0
 c5: Aft[36] >= 0
 c5: Aft[37] >= 0
 c5: Aft[38] >= 0
 c5: Aft[39] >= 0
 c5: Aft[40] >= 0
 c5: Aft[41] >= 0
 c5: Aft[42] >= 0
 c5: Aft[43] >= 0
 c5: Aft[44] >= 0
 c5: Aft[45] >= 0
 c5: Aft[46] >= 0
 c5: Aft[47] >= 0
 c5: Aft[48] >= 0
 c5: Aft[49] >= 0
 c5: Aft[50] >= 0
 c5: Aft[51] >= 0
 c5: Aft[52] >= 0
 c5: Aft[53] >= 0
 c5: Aft[54] >= 0
 c5: Aft[55] >= 0
 c5: Aft[56] >= 0
 c5: Aft[57] >= 0
 c5: Aft[58] >= 0
 c5: Aft[59] >= 0
 c5: Aft[60] >= 0
 c5: Aft[61] >= 0
 c5: Aft[62] >= 0
 c5: Aft[63] >= 0
 c5: Aft[64] >= 0
 c5: Aft[65] >= 0
 c5: Aft[66] >= 0
 c5: Aft[67] >= 0
 c5: Aft[68] >= 0
 c5: Aft[69] >= 0
 c5: Aft[70] >= 0
 c5: Aft[71] >= 0
 c5: Aft[72] >= 0
 c5: Aft[73] >= 0
 c5: Aft[74] >= 0
 c5: Aft[75] >= 0
 c5: Aft[76] >= 0
 c5: Aft[77] >= 0
 c5: Aft[78] >= 0
 c5: Aft[79] >= 0
 c5: Aft[80] >= 0
 c5: Aft[81] >= 0
 c5: Aft[82] >= 0
 c5: Aft[83] >= 0
 c5: Aft[84] >= 0
 c5: Aft[85] >= 0
 c5: Aft[86] >= 0
 c5: Aft[87] >= 0
 c5: Aft[88] >= 0
 c5: Aft[89] >= 0
 c5: Aft[90] >= 0
 c5: Aft[91] >= 0
 c5: Aft[92] >= 0
 c5: Aft[93] >= 0
 c5: Aft[94] >= 0
 c5: Aft[95] >= 0
 c5: Aft[96] >= 0
 c5: Aft[97] >= 0
 c5: Aft[98] >= 0
 c5: Aft[99] >= 0
 c5: Aft[100] >= 0
 c5: Aft[101] >= 0
 c5: Aft[102] >= 0
 c5: Aft[103] >= 0
 c5: Aft[104] >= 0
 c5: Aft[105] >= 0
 c5: Aft[106] >= 0
 c5: Aft[107] >= 0
 c5: Aft[108] >= 0
 c5: Aft[109] >= 0
 c5: Aft[110] >= 0
 c5: Aft[111] >= 0
 c5: Aft[112] >= 0
 c5: Aft[113] >= 0
 c5: Aft[114] >= 0
 c5: Aft[115] >= 0
 c5: Aft[116] >= 0
 c5: Aft[117] >= 0
 c5: Aft[118] >= 0
 c5: Aft[119] >= 0
 c5: Aft[120] >= 0
 c5: Aft[121] >= 0
 c5: Aft[122] >= 0
 c5: Aft[123] >= 0
 c5: Aft[124] >= 0
 c5: Aft[125] >= 0
 c5: Aft[126] >= 0
 c5: Aft[127] >= 0
 c5: Aft[128] >= 0
 c5: Aft[129] >= 0
 c5: Aft[130] >= 0
 c5: Aft[131] >= 0
 c5: Aft[132] >= 0
 c5: Aft[133] >= 0
 c5: Aft[134] >= 0
 c5: Aft[135] >= 0
 c5: Aft[136] >= 0
 c5: Aft[137] >= 0
 c5: Aft[138] >= 0
 c5: Aft[139] >= 0
 c5: Aft[140] >= 0
 c5: Aft[141] >= 0
 c5: Aft[142] >= 0
 c5: Aft[143] >= 0
 c5: Aft[144] >= 0
 c5: Aft[145] >= 0
 c5: Aft[146] >= 0
 c5: Aft[147] >= 0
 c5: Aft[148] >= 0
 c5: Aft[149] >= 0
 c5: Aft[150] >= 0
 c5: Aft[151] >= 0
 c5: Aft[152] >= 0
 c5: Aft[153] >= 0
 c5: Aft[154] >= 0
 c5: Aft[155] >= 0
 c5: Aft[156] >= 0
 c5: Aft[157] >= 0
 c5: Aft[158] >= 0
 c5: Aft[159] >= 0
 c5: Aft[160] >= 0
 c5: Aft[161] >= 0
 c5: Aft[162] >= 0
 c5: Aft[163] >= 0
 c5: Aft[164] >= 0
 c5: Aft[165] >= 0
 c5: Aft[166] >= 0
 c5: Aft[167] >= 0
 c5: Aft[168] >= 0
 c5: Aft[169] >= 0
 c5: Aft[170] >= 0
 c5: Aft[171] >= 0
 c5: Aft[172] >= 0
 c5: Aft[173] >= 0
 c5: Aft[174] >= 0
 c5: Aft[175] >= 0
 c5: Aft[176] >= 0
 c5: Aft[177] >= 0
 c5: Aft[178] >= 0
 c5: Aft[179] >= 0
 c5: Aft[180] >= 0
 c5: Aft[181] >= 0
 c5: Aft[182] >= 0
 c5: Aft[183] >= 0
 c5: Aft[184] >= 0
 c5: Aft[185] >= 0
 c5: Aft[186] >= 0
 c5: Aft[187] >= 0
 c5: Aft[188] >= 0
 c5: Aft[189] >= 0
 c5: Aft[190] >= 0
 c5: Aft[191] >= 0
 c5: Aft[192] >= 0
 c5: Aft[193] >= 0
 c5: Aft[194] >= 0
 c5: Aft[195] >= 0
 c5: Aft[196] >= 0
 c5: Aft[197] >= 0
 c5: Aft[198] >= 0
 c5: Aft[199] >= 0
 c5: Aft[200] >= 0
 c5: Aft[201] >= 0
 c5: Aft[202] >= 0
 c5: Aft[203] >= 0
 c5: Aft[204] >= 0
 c5: Aft[205] >= 0
 c5: Aft[206] >= 0
 c5: Aft[207] >= 0
 c5: Aft[208] >= 0
 c5: Aft[209] >= 0
 c5: Aft[210] >= 0
 c5: Aft[211] >= 0
 c5: Aft[212] >= 0
 c5: Aft[213] >= 0
 c5: Aft[214] >= 0
 c5: Aft[215] >= 0
 c5: Aft[216] >= 0
 c5: Aft[217] >= 0
 c5: Aft[218] >= 0
 c5: Aft[219] >= 0
 c5: Aft[220] >= 0
 c5: Aft[221] >= 0
 c5: Aft[222] >= 0
 c5: Aft[223] >= 0
 c5: Aft[224] >= 0
 c5: Aft[225] >= 0
 c5: Aft[226] >= 0
 c5: Aft[227] >= 0
 c5: Aft[228] >= 0
 c5: Aft[229] >= 0
 c5: Aft[230] >= 0
 c5: Aft[231] >= 0
 c5: Aft[232] >= 0
 c5: Aft[233] >= 0
 c5: Aft[234] >= 0
 c5: Aft[235] >= 0
 c5: Aft[236] >= 0
 c5: Aft[237] >= 0
 c5: Aft[238] >= 0
 c5: Aft[239] >= 0
 c5: Aft[240] >= 0
 c5: Aft[241] >= 0
 c5: Aft[242] >= 0
 c5: Aft[243] >= 0
 c5: Aft[244] >= 0
 c5: Aft[245] >= 0
 c5: Aft[246] >= 0
 c5: Aft[247] >= 0
 c5: Aft[248] >= 0
 c5: Aft[249] >= 0
 c5: Aft[250] >= 0
 c5: Aft[251] >= 0
 c5: Aft[252] >= 0
 c5: Aft[253] >= 0
 c5: Aft[254] >= 0
 c5: Aft[255] >= 0
 c5: Aft[256] >= 0
 c5: Aft[257] >= 0
 c5: Aft[258] >= 0
 c5: Aft[259] >= 0
 c5: Aft[260] >= 0
 c5: Aft[261] >= 0
 c5: Aft[262] >= 0
 c5: Aft[263] >= 0
 c5: Aft[264] >= 0
 c5: Aft[265] >= 0
 c5: Aft[266] >= 0
 c5: Aft[267] >= 0
 c5: Aft[268] >= 0
 c5: Aft[269] >= 0
 c5: Aft[270] >= 0
 c5: Aft[271] >= 0
 c5: Aft[272] >= 0
 c5: Aft[273] >= 0
 c5: Aft[274] >= 0
 c5: Aft[275] >= 0
 c5: Aft[276] >= 0
 c5: Aft[277] >= 0
 c5: Aft[278] >= 0
 c5: Aft[279] >= 0
 c5: Aft[280] >= 0
 c5: Aft[281] >= 0
 c5: Aft[282] >= 0
 c5: Aft[283] >= 0
 c5: Aft[284] >= 0
 c5: Aft[285] >= 0
 c5: Aft[286] >= 0
 c5: Aft[287] >= 0
 c5: Aft[288] >= 0
 c5: Aft[289] >= 0
 c5: Aft[290] >= 0
 c5: Aft[291] >= 0
 c5: Aft[292] >= 0
 c5: Aft[293] >= 0
 c5: Aft[294] >= 0
 c5: Aft[295] >= 0
 c5: Aft[296] >= 0
 c5: Aft[297] >= 0
 c5: Aft[298] >= 0
 c5: Aft[299] >= 0
 c5: Aft[300] >= 0
 c5: Aft[301] >= 0
 c5: Aft[302] >= 0
 c5: Aft[303] >= 0
 c5: Aft[304] >= 0
 c5: Aft[305] >= 0
 c5: Aft[306] >= 0
 c5: Aft[307] >= 0
 c5: Aft[308] >= 0
 c5: Aft[309] >= 0
 c5: Aft[310] >= 0
 c5: Aft[311] >= 0
 c5: Aft[312] >= 0
 c5: Aft[313] >= 0
 c5: Aft[314] >= 0
 c5: Aft[315] >= 0
 c5: Aft[316] >= 0
 c5: Aft[317] >= 0
 c5: Aft[318] >= 0
 c5: Aft[319] >= 0
 c5: Aft[320] >= 0
 c5: Aft[321] >= 0
 c5: Aft[322] >= 0
 c5: Aft[323] >= 0
 c5: Aft[324] >= 0
 c5: Aft[325] >= 0
 c5: Aft[326] >= 0
 c5: Aft[327] >= 0
 c5: Aft[328] >= 0
 c5: Aft[329] >= 0
 c5: Aft[330] >= 0
 c5: Aft[331] >= 0
 c5: Aft[332] >= 0
 c5: Aft[333] >= 0
 c5: Aft[334] >= 0
 c5: Aft[335] >= 0
 c5: Aft[336] >= 0
 c5: Aft[337] >= 0
 c5: Aft[338] >= 0
 c5: Aft[339] >= 0
 c5: Aft[340] >= 0
 c5: Aft[341] >= 0
 c5: Aft[342] >= 0
 c5: Aft[343] >= 0
 c5: Aft[344] >= 0
 c5: Aft[345] >= 0
 c5: Aft[346] >= 0
 c5: Aft[347] >= 0
 c5: Aft[348] >= 0
 c5: Aft[349] >= 0
 c5: Aft[350] >= 0
 c5: Aft[351] >= 0
 c5: Aft[352] >= 0
 c5: Aft[353] >= 0
 c5: Aft[354] >= 0
 c5: Aft[355] >= 0
 c5: Aft[356] >= 0
 c5: Aft[357] >= 0
 c5: Aft[358] >= 0
 c5: Aft[359] >= 0
 c5: Aft[360] >= 0
 c5: Aft[361] >= 0
 c5: Aft[362] >= 0
 c5: Aft[363] >= 0
 c5: Aft[364] >= 0
 c5: Aft[365] >= 0
 c5: Aft[366] >= 0
 c5: Aft[367] >= 0
 c5: Aft[368] >= 0
 c5: Aft[369] >= 0
 c5: Aft[370] >= 0
 c5: Aft[371] >= 0
 c5: Aft[372] >= 0
 c5: Aft[373] >= 0
 c5: Aft[374] >= 0
 c5: Aft[375] >= 0
 c5: Aft[376] >= 0
 c5: Aft[377] >= 0
 c5: Aft[378] >= 0
 c5: Aft[379] >= 0
 c5: Aft[380] >= 0
 c5: Aft[381] >= 0
 c5: Aft[382] >= 0
 c5: Aft[383] >= 0
 c5: Aft[384] >= 0
 c5: Aft[385] >= 0
 c5: Aft[386] >= 0
 c5: Aft[387] >= 0
 c5: Aft[388] >= 0
 c5: Aft[389] >= 0
 c5: Aft[390] >= 0
 c5: Aft[391] >= 0
 c5: Aft[392] >= 0
 c5: Aft[393] >= 0
 c5: Aft[394] >= 0
 c5: Aft[395] >= 0
Bounds
End
